# Label
SystemLabel catsio2wat25

# Optimisation
MD.TypeOfRun CG
MD.NumCGSteps 9000
MD.VariableCell .true. 
MD.UseSaveXV .true.
MD.UseSaveCG .true.
MD.UseSaveDM .true.
# SCF
SolutionMethod diagon
MaxSCFIterations 500
DM.MixingWeight 0.05
DM.NumberPulay 30
SpinPolarized F

# Basis set
MeshCutoff 200 Ry

# Functional
XC.Functional GGA
XC.Authors RPBE

# I/O
LongOutput true
WriteMDhistory true
WriteMDXmol true
WriteCoorXmol true
WriteCoorCerius true
WriteDM true

#%block kgrid_MonkhorstPack
#3 0 0 0.0
#0 3 0 0.0
#0 0 3 0.0
#%endblock kgrid_MonkhorstPack


############################################################################################
NumberOfSpecies    4 
NumberOfAtoms      287

%block ChemicalSpeciesLabel
    1  1   H
    2  6   C
    3  8   O
    4  14  Si 
%endblock ChemicalSpeciesLabel

%block PAO.BasisSizes
 H DZP
 C DZP
 O DZP
 Si DZP
%endblock PAO.BasisSizes

LatticeConstant    1.00000 Ang
%block LatticeVectors
  14.662154    0.084061    0.000000
   0.074910   14.590447    0.000000
   0.000000    0.000000   40.000000
%endblock LatticeVectors

%block GeometryConstraints
  position from 15  to 15
  position from 21  to 21 
  position from 27  to 27 
  position from 33  to 33 
  position from 39  to 39
  position from 45  to 45
  position from 51  to 51
  position from 57  to 57
  position from 63  to 63
  stress 3 4 5
%endblock GeometryConstraints

AtomicCoordinatesFormat Ang
%block AtomicCoordinatesAndAtomicSpecies
     6.15000000     7.17000000    15.47800000    2    C    1
     5.92900000     8.49200000    15.02300000    2    C    2
     5.89900000     9.54900000    15.94800000    2    C    3
     6.08300000     9.29200000    17.31300000    2    C    4
     6.34400000     7.98900000    17.76600100    2    C    5
     6.38200000     6.93200000    16.84400000    2    C    6
     5.72400000     8.78800000    13.70100000    3    O    7
     6.10300000     6.10500000    14.59100000    3    O    8
     5.98800000     8.04300000    13.09100000    1    H    9
     5.77500000    10.57400000    15.57100000    1    H   10
     6.04500000    10.12400000    18.02800000    1    H   11
     6.51700000     7.79500000    18.83200100    1    H   12
     6.56700000     5.89600000    17.15800100    1    H   13
     7.00700000     5.97200000    14.18500000    1    H   14
     2.99600000     3.36600000     2.43800000    4   Si   15
     3.41800000     1.02100000     4.29600000    4   Si   16
     0.99200000     1.06700000     6.14300000    4   Si   17
     0.98800000     3.46800000     8.02200000    4   Si   18
     3.41200000     3.54300000     9.85500000    4   Si   19
     2.97900000     1.23000000    11.68700000    4   Si   20
     3.01800000     8.21800000     2.43800000    4   Si   21
     3.37200000     5.89800000     4.34000000    4   Si   22
     0.94000000     5.95700000     6.19700000    4   Si   23
     0.97200000     8.40200000     8.05000000    4   Si   24
     3.40400000     8.42700000     9.92300000    4   Si   25
     3.10500000     6.00200000    11.75100000    4   Si   26
     3.03900000    13.07100000     2.43800000    4   Si   27
     3.34500000    10.72100000     4.27900000    4   Si   28
     0.95100000    10.81100000     6.13500000    4   Si   29
     0.99900000    13.22100000     8.01400000    4   Si   30
     3.40900000    13.23700000     9.90300000    4   Si   31
     2.97500000    10.93900000    11.84000000    4   Si   32
     7.87400000     3.39100000     2.43800000    4   Si   33
     8.31400000     1.04200000     4.28500000    4   Si   34
     5.91400000     1.13100000     6.18700000    4   Si   35
     5.93400000     3.59100000     8.07600000    4   Si   36
     8.43400000     3.69400000     9.94500000    4   Si   37
     7.83500000     1.34700000    11.53800000    4   Si   38
     7.89500000     8.24300000     2.43800000    4   Si   39
     8.29100000     5.93400000     4.31700000    4   Si   40
     5.88700000     6.03500000     6.20300000    4   Si   41
     5.91300000     8.49800000     8.10400000    4   Si   42
     8.39500000     8.69800000     9.97100000    4   Si   43
     7.98400000     6.36500000    11.70600000    4   Si   44
     7.91700000    13.09500000     2.43800000    4   Si   45
     8.24100000    10.75500000     4.28000000    4   Si   46
     5.82500000    10.86700000     6.12600000    4   Si   47
     5.88300000    13.23900000     8.02700000    4   Si   48
     8.28500000    13.43400000     9.80500000    4   Si   49
     7.92700000    11.25500000    11.89300000    4   Si   50
    12.75200000     3.41500000     2.43800000    4   Si   51
    13.19800000     1.06700000     4.27000000    4   Si   52
    10.80800000     1.15800000     6.15000000    4   Si   53
    10.83200000     3.58900000     8.00800000    4   Si   54
    13.21300000     3.56300000     9.95300000    4   Si   55
    12.75400000     1.09800000    11.70700000    4   Si   56
    12.77300000     8.26700000     2.43800000    4   Si   57
    13.15100000     5.95000000     4.30200000    4   Si   58
    10.78000000     6.07500000     6.20500000    4   Si   59
    10.80500000     8.54400000     8.06400000    4   Si   60
    13.26100000     8.54000000    10.00300000    4   Si   61
    12.97000000     6.11300000    11.77500000    4   Si   62
    12.79400000    13.12000000     2.43800000    4   Si   63
    13.13200000    10.78800000     4.27200000    4   Si   64
    10.72900000    10.88900000     6.11200000    4   Si   65
    10.79800000    13.27400000     7.97800000    4   Si   66
    13.17200000    13.32700000     9.82000000    4   Si   67
    12.79100000    11.15800000    11.85100000    4   Si   68
     2.72800000     4.60500000     3.53400000    3    O   69
     3.90600000     2.14600000     3.16800000    3    O   70
     4.71800000     0.54200000     5.20100000    3    O   71
     2.25400000     1.70700000     5.27200000    3    O   72
     0.32700000     2.27800000     7.06500000    3    O   73
     2.28300000     2.83100000     8.85700000    3    O   74
     2.69400000     4.74400000    10.72500000    3    O   75
     1.57000000     4.72800000     7.11500000    3    O   76
     4.69600000     4.18000000     9.01800000    3    O   77
     4.00000000     2.29800000    10.83500000    3    O   78
     3.69000000     0.84600000    13.13600000    3    O   79
     1.58000000     2.01300000    12.08900000    3    O   80
     2.62700000     9.44500000     3.50800000    3    O   81
     3.90500000     7.03200000     3.24300000    3    O   82
     4.64300000     5.42300000     5.29100000    3    O   83
     2.17000000     6.58300000     5.27100000    3    O   84
     0.31500000     7.16200000     7.15300000    3    O   85
     2.24900000     7.79400000     8.91900000    3    O   86
     2.74300000     9.63200000    10.83800000    3    O   87
     1.58400000     9.59100000     7.06100000    3    O   88
     4.68100000     9.06500000     9.06400000    3    O   89
     3.99900000     7.15500000    10.85000000    3    O   90
     4.12600000     5.30700000    12.87200000    3    O   91
     1.80500000     6.81500000    12.28100000    3    O   92
     2.81200000    14.31600000     3.53300000    3    O   93
     3.90700000    11.82400000     3.16600000    3    O   94
     4.61700000    10.19900000     5.20500000    3    O   95
     2.17400000    11.45500000     5.20900000    3    O   96
     0.33200000    12.02800000     7.07300000    3    O   97
     2.22400000    12.57500000     8.94000000    3    O   98
     2.74200000    14.51000000    10.72400000    3    O   99
     1.66100000    14.43200000     7.09200000    3    O  100
     4.69700000    13.81200000     9.03800000    3    O  101
     3.93900000    12.05100000    10.96100000    3    O  102
     3.76000000    10.57300000    13.25700000    3    O  103
     1.59100000    11.61400000    12.39800000    3    O  104
     7.63300000     4.63800000     3.53000000    3    O  105
     8.79100000     2.17400000     3.16000000    3    O  106
     9.62200000     0.54500000     5.16200000    3    O  107
     7.17300000     1.73000000     5.28800000    3    O  108
     5.33500000     2.34200000     7.16400000    3    O  109
     7.17000000     3.06800000     9.05500000    3    O  110
     7.91600000     4.93500000    10.89800000    3    O  111
     6.52400000     4.79900000     7.11300000    3    O  112
     9.63200000     4.24300000     8.95500000    3    O  113
     8.98700000     2.43000000    10.90600000    3    O  114
     8.40400000     0.54600000    12.84500000    3    O  115
     6.48900000     2.23100000    11.97600000    3    O  116
     7.53300000     9.47500000     3.50900000    3    O  117
     8.81700000     7.05800000     3.20500000    3    O  118
     9.54800000     5.45400000     5.27800000    3    O  119
     7.09200000     6.64200000     5.23900000    3    O  120
     5.33000000     7.23000000     7.20600000    3    O  121
     7.18100000     8.00300000     9.05600000    3    O  122
     7.78900000     9.89800000    10.92300000    3    O  123
     6.47200000     9.69200000     7.10100000    3    O  124
     9.59500000     9.25100000     8.96900000    3    O  125
     9.02100000     7.45100000    10.92400000    3    O  126
     8.47000000     6.15400000    13.27700000    3    O  127
     6.46100000     7.03500000    11.82100000    3    O  128
     7.68500000    14.34700000     3.52200000    3    O  129
     8.80600000    11.86100000     3.16900000    3    O  130
     9.50200000    10.22100000     5.21000000    3    O  131
     7.05200000    11.49100000     5.19300000    3    O  132
     5.18600000    12.08500000     7.05700000    3    O  133
     7.14100000    12.59900000     8.91200000    3    O  134
     7.52400000    14.79200000    10.38600000    3    O  135
     6.53400000    14.47200000     7.13100000    3    O  136
     9.60400000    13.91900000     8.93200000    3    O  137
     8.82600000    12.38800000    10.98900000    3    O  138
     8.80000000    10.86000000    13.23700000    3    O  139
     6.46400000    11.84400000    12.37200000    3    O  140
    12.45800000     4.67100000     3.51000000    3    O  141
    13.69500000     2.21200000     3.16400000    3    O  142
    14.49200000     0.51400000     5.14200000    3    O  143
    12.07100000     1.78300000     5.26900000    3    O  144
    10.17000000     2.38300000     7.07300000    3    O  145
    12.03900000     2.94200000     8.93800000    3    O  146
    12.55100000     4.81000000    10.79900000    3    O  147
    11.43700000     4.82200000     7.07700000    3    O  148
    14.50000000     4.12000000     9.06500000    3    O  149
    13.72200000     2.29900000    10.93300000    3    O  150
    13.69600000     0.27000000    12.75000000    3    O  151
    11.42400000     1.78200000    12.40200000    3    O  152
    12.42900000     9.50200000     3.50900000    3    O  153
    13.70000000     7.07600000     3.20000000    3    O  154
    14.40300000     5.40400000     5.24000000    3    O  155
    11.98900000     6.69400000     5.24500000    3    O  156
    10.18000000     7.27500000     7.18500000    3    O  157
    12.00700000     7.99000000     9.04400000    3    O  158
    12.70400000     9.71200000    11.02500000    3    O  159
    11.41800000     9.70100000     7.04300000    3    O  160
    14.47300000     9.14900000     9.03300000    3    O  161
    13.80900000     7.21300000    10.81600000    3    O  162
    14.06500000     5.69500000    12.92800000    3    O  163
    11.59000000     6.73900000    12.45100000    3    O  164
    12.54400000    14.38700000     3.50200000    3    O  165
    13.69700000    11.89500000     3.16300000    3    O  166
    14.39500000    10.26300000     5.20200000    3    O  167
    11.93600000    11.53100000     5.16600000    3    O  168
    10.08300000    12.10700000     7.03300000    3    O  169
    12.03200000    12.57100000     8.84600000    3    O  170
    12.38100000    14.60400000    10.51300000    3    O  171
    11.46300000    14.49800000     7.07200000    3    O  172
    14.45200000    13.93500000     8.95000000    3    O  173
    13.76700000    12.18700000    10.88900000    3    O  174
    13.45100000    11.07200000    13.35300000    3    O  175
    11.33600000    11.84700000    12.16900000    3    O  176
     1.63500000     2.87400000     2.03800000    1    H  177
     3.82100000     3.84500000     1.27800000    1    H  178
     0.77400000     1.98600000    11.51700000    1    H  179
     4.62700000     0.50900000    13.31200000    1    H  180
     1.70800000     7.67900000     1.93700000    1    H  181
     3.91300000     8.71800000     1.34000000    1    H  182
     1.01900000     6.37600000    12.70100000    1    H  183
     4.79900000     5.82300000    13.39300000    1    H  184
     1.66400000    12.62400000     2.03200000    1    H  185
     3.87900000    13.52800000     1.27900000    1    H  186
     0.86500000    11.95800000    11.83900000    1    H  187
     4.55900000     9.97600000    13.27100000    1    H  188
     6.50600000     2.89700000     2.06700000    1    H  189
     8.67700000     3.86300000     1.26000000    1    H  190
     5.68800000     2.29900000    11.40200000    1    H  191
     9.10400000     0.81800000    13.54600000    1    H  192
     6.57000000     7.69800000     1.98500000    1    H  193
     8.74700000     8.74300000     1.30600000    1    H  194
     5.73400000     6.98000000    11.15400000    1    H  195
     8.83300000     6.99900000    13.73000000    1    H  196
     6.54400000    12.62500000     2.05300000    1    H  197
     8.73900000    13.54800000     1.26500000    1    H  198
     5.72300000    12.01800000    11.75600000    1    H  199
     9.06100000    11.60600000    13.87300000    1    H  200
    11.40000000     2.88900000     2.05400000    1    H  201
    13.56000000     3.89400000     1.26600000    1    H  202
    10.72200000     2.17100000    11.84100000    1    H  203
    14.11000000     0.66500000    13.57100000    1    H  204
    11.44600000     7.72600000     1.99100000    1    H  205
    13.62300000     8.76200000     1.30200000    1    H  206
    10.88100000     7.06100000    11.86200000    1    H  207
    13.76900000     5.42200000    13.87300000    1    H  208
    11.42500000    12.63900000     2.05300000    1    H  209
    13.61300000    13.57300000     1.26200000    1    H  210
    10.65500000    12.09900000    11.51700000    1    H  211
    14.01200000    10.36000000    13.80800000    1    H  212
     1.08100000     6.78700000    15.29600000    3    O  213
     8.04400000    12.03800000    17.23900000    3    O  214
    -0.01600000     9.39300000    15.00000000    3    O  215
     2.38300000     9.99500000    15.79900000    3    O  216
    11.35500000     7.18500000    15.81000000    3    O  217
    12.34700000     9.44800000    16.83099900    3    O  218
     6.06100000     2.82300000    14.76500000    3    O  219
    12.25500000     0.75600000    15.95700000    3    O  220
     5.89900000    12.83500000    16.15800100    3    O  221
     3.62200000     3.91100000    15.28100000    3    O  222
    -0.00400000     1.21300000    15.02700000    3    O  223
    12.14500000    12.25100000    15.52700000    3    O  224
    12.32600000     3.52300000    16.94100000    3    O  225
     3.22400000    12.64100000    15.70100000    3    O  226
     2.67400000     0.74200000    15.60400000    3    O  227
     9.53800000    12.73500000    15.04900000    3    O  228
    13.38700000     5.39600000    15.36900000    3    O  229
     9.77300000     0.87900000    14.93300000    3    O  230
     5.99700000     0.17200000    14.24900000    3    O  231
     9.24600000     9.51400000    16.74900100    3    O  232
     9.92100000     5.14900000    16.93600100    3    O  233
     9.35300000     8.35300000    14.38400000    3    O  234
     8.53900000     3.24200000    15.94000000    3    O  235
     0.95200000     3.56500000    14.45800000    3    O  236
     0.31000000     6.19500000    15.47100000    1    H  237
     0.69800000     7.67500000    15.11000000    1    H  238
     8.21000000    12.49400000    18.07900000    1    H  239
     7.12700000    12.35700000    16.89500000    1    H  240
     0.86000000     9.74700000    15.37800000    1    H  241
    -0.69100000     9.39900000    15.71600000    1    H  242
     2.89300000     9.92400000    14.96400000    1    H  243
     2.57700000    10.91600000    16.08799900    1    H  244
    10.86300000     7.52100000    15.01400000    1    H  245
    10.73200000     6.53100000    16.24900100    1    H  246
    12.63100000     9.30600000    17.74900100    1    H  247
    11.99100000     8.55300000    16.51000000    1    H  248
     5.20000000     3.24700000    15.06400000    1    H  249
     6.10600000     2.93700000    13.78600000    1    H  250
    13.18000000     0.94100000    15.61600000    1    H  251
    12.25100000    -0.20100000    16.15800100    1    H  252
     4.92300000    12.69000000    16.20400000    1    H  253
     6.01300000    13.50500000    15.43400000    1    H  254
     3.68700000     4.33000000    14.38500000    1    H  255
     3.54900000     4.73900000    15.89400000    1    H  256
     0.83700000     0.82400000    15.36700000    1    H  257
     0.27300000     2.18500000    14.87500000    1    H  258
    12.62800000    12.00200000    14.69200000    1    H  259
    12.22500000    11.44800000    16.08099900    1    H  260
    11.45000000     3.94100000    17.08799900    1    H  261
    12.17600000     2.56900000    16.77500000    1    H  262
     2.95800000    13.59200000    15.80300000    1    H  263
     3.24100000    12.47000000    14.73800000    1    H  264
     3.00900000     0.88800000    14.67300000    1    H  265
     3.02500000     1.49600000    16.11300100    1    H  266
     9.06600000    12.48500000    15.89200000    1    H  267
    10.51100000    12.51400000    15.19000000    1    H  268
    12.65200000     6.05500000    15.48800000    1    H  269
    13.10500000     4.58200000    15.88600000    1    H  270
     9.57900000    -0.08500000    15.12000000    1    H  271
    10.76000000     0.95800000    15.08100000    1    H  272
     6.05600000     1.10300000    14.62400000    1    H  273
     6.83700000     0.07700000    13.73000000    1    H  274
    10.18100000     9.71200000    16.94100000    1    H  275
     8.73100000    10.32300000    16.97600000    1    H  276
     9.45600000     5.36500000    17.76100000    1    H  277
     9.32100000     4.45900000    16.46100000    1    H  278
     9.13600000     8.72200000    15.30000000    1    H  279
     9.27900000     9.15700000    13.81100000    1    H  280
     8.97800000     2.40600000    15.66000000    1    H  281
     7.63500000     3.21800000    15.54800000    1    H  282
     1.17400000     3.32600000    13.53100000    1    H  283
     1.83500000     3.68600000    14.89200000    1    H  284
     6.51399995     4.48599998    13.70300090    3    O  285
     7.21199995     5.15299998    13.80399990    1    H  286
     5.72199995     4.90299998    13.23100090    1    H  287
%endblock AtomicCoordinatesAndAtomicSpecies
