# Label
SystemLabel naclwater

# Optimisation
MD.TypeOfRun CG
MD.NumCGSteps 9000
MD.VariableCell .true. 
MD.UseSaveXV .true.
MD.UseSaveCG .true.
MD.UseSaveDM .true.

# SCF
SolutionMethod diagon
MaxSCFIterations 500
DM.MixingWeight 0.05
DM.NumberPulay 30
SpinPolarized F

# Basis set
MeshCutoff 200 Ry

# Functional
XC.Functional GGA
XC.Authors RPBE

# I/O
LongOutput true
WriteMDhistory true
WriteMDXmol true
WriteCoorXmol true
WriteCoorCerius true
WriteDM true

#%block kgrid_MonkhorstPack
#3 0 0 0.0
#0 3 0 0.0
#0 0 1 0.0
#%endblock kgrid_MonkhorstPack

############################################################################################
NumberOfSpecies    4
NumberOfAtoms      139

%block ChemicalSpeciesLabel
    1   1    H
    2   8    O
    3  11    Na
    4  17    Cl
%endblock ChemicalSpeciesLabel

%block PAO.BasisSizes
 H   DZP
 O   DZP
 Na  DZP
 Cl  DZP
%endblock PAO.BasisSizes

LatticeConstant    1.00000 Ang
%block LatticeVectors
 14.829829    0.954961    0.000000
  0.950355   15.916955    0.000000
  0.000000    0.000000   40.000000
%endblock LatticeVectors

#%block GeometryConstraints
#  position from 16  to 16
#  position from 38  to 38 
#  position from 60  to 60 
#  position from 82  to 82 
#  position from 104  to 104
#  position from 126  to 126
#  position from 148  to 148
#  position from 170  to 170
#  position from 192  to 192
#  stress 3 4 5
#%endblock GeometryConstraints

AtomicCoordinatesFormat Ang
%block AtomicCoordinatesAndAtomicSpecies
     0.53690300     0.53690400     0.03910900    3   Na    1
     0.53430900     3.31879500     2.81561000    3   Na    2
     3.31879600     0.53430900     2.81560900    3   Na    3
     3.31353900     3.31353800     0.09105000    3   Na    4
     6.11250200     0.53659500     0.06312600    3   Na    5
     6.10323900     3.31697100     2.81846800    3   Na    6
     8.88633600     0.53457600     2.81479900    3   Na    7
     8.88883300     3.31258500     0.06192100    3   Na    8
     0.53659400     6.11250200     0.06312800    3   Na    9
     0.53457600     8.88633600     2.81480200    3   Na   10
     3.31696900     6.10323700     2.81847100    3   Na   11
     3.31258400     8.88882800     0.06192100    3   Na   12
     6.11281600     6.11281700     0.08943100    3   Na   13
     6.10268900     8.88751600     2.81545600    3   Na   14
     8.88751600     6.10268900     2.81545500    3   Na   15
     8.88999100     8.88998900     0.03688000    3   Na   16
     0.53717300     0.53717500     5.78433100    3   Na   17
     0.53643500     3.31265000     8.53673400    3   Na   18
     3.31264900     0.53643600     8.53673300    3   Na   19
     3.31711900     3.31711800     5.77491400    3   Na   20
     6.10452300     0.53499200     5.78346600    3   Na   21
     6.11363700     3.31234400     8.50919300    3   Na   22
     8.88844100     0.53328300     8.56003700    3   Na   23
     8.88701600     3.31719800     5.78015300    3   Na   24
     0.53498700     6.10453100     5.78347000    3   Na   25
     0.53326900     8.88844600     8.56004000    3   Na   26
     3.31234200     6.11364100     8.50919400    3   Na   27
     3.31719500     8.88701700     5.78015500    3   Na   28
     6.10357900     6.10357000     5.77549700    3   Na   29
     6.11084200     8.88792700     8.53531300    3   Na   30
     8.88792200     6.11084800     8.53531200    3   Na   31
     8.88623700     8.88624000     5.78021000    3   Na   32
     0.53581100     0.53581200     2.85754300    4   Cl   33
     3.31720900     3.31720800     2.88061900    4   Cl   34
     0.53514000     3.32288800    -0.05472800    4   Cl   35
     3.32288900     0.53513900    -0.05472900    4   Cl   36
     6.10555700     0.53444200     2.86850700    4   Cl   37
     8.88888300     3.31675500     2.86790300    4   Cl   38
     6.10099700     3.32211100    -0.01915000    4   Cl   39
     8.88852200     0.53553700    -0.09109700    4   Cl   40
     0.53444000     6.10555800     2.86850900    4   Cl   41
     3.31675500     8.88888100     2.86790500    4   Cl   42
     0.53553800     8.88851900    -0.09109500    4   Cl   43
     3.32211100     6.10099400    -0.01914900    4   Cl   44
     6.10574700     6.10574600     2.88068300    4   Cl   45
     8.88750300     8.88750200     2.85588600    4   Cl   46
     6.10127600     8.88949900    -0.05555000    4   Cl   47
     8.88950100     6.10127500    -0.05555100    4   Cl   48
     0.53438300     0.53438800     8.68960500    4   Cl   49
     3.32141400     3.32141700     8.61689300    4   Cl   50
     0.53343100     3.31718600     5.73028300    4   Cl   51
     3.31718500     0.53343300     5.73028100    4   Cl   52
     6.10109700     0.53408400     8.65436800    4   Cl   53
     8.88889500     3.32090700     8.65280800    4   Cl   54
     6.10516600     3.31595100     5.71697100    4   Cl   55
     8.88747200     0.53422500     5.74118500    4   Cl   56
     0.53407800     6.10110600     8.65436800    4   Cl   57
     3.32090300     8.88889700     8.65281200    4   Cl   58
     0.53422400     8.88747600     5.74118700    4   Cl   59
     3.31595000     6.10516700     5.71697200    4   Cl   60
     6.10052900     6.10053100     8.61536500    4   Cl   61
     8.88663900     8.88664600     8.68785000    4   Cl   62
     6.10457900     8.88857300     5.72915100    4   Cl   63
     8.88857300     6.10458000     5.72915100    4   Cl   64
     5.51153100     7.47668000     4.83532500    2    O   65
     6.66543200     4.81009600     4.91530100    2    O   66
    -0.56309400     5.02612000     4.01167000    2    O   67
     1.79662400     5.90790800     5.04297800    2    O   68
     7.48976000     9.19997400     4.97158000    2    O   69
     3.76323600     6.65678000     3.17809700    2    O   70
    -1.67560600     7.39260500     4.15436100    2    O   71
     2.55841900    -1.47008600     4.16904300    2    O   72
     1.66947100     1.79814500     4.60932600    2    O   73
     8.19178600     6.13996000     3.09369100    2    O   74
     1.01853400    11.13459400     4.18496600    2    O   75
     8.47496900     1.44080700     5.28357800    2    O   76
     6.27635500     2.11225800     4.05357800    2    O   77
    12.73841700     4.12005100     5.00371500    2    O   78
    10.36727300     5.73133200     4.75251500    2    O   79
     8.93224100     3.88699500     6.28466100    2    O   80
     3.98257000     0.83911700     3.91258600    2    O   81
     3.82720400    10.75768100     4.27142500    2    O   82
    10.81860100     0.29544100     4.05834700    2    O   83
     6.64326900    11.17923300     3.39901400    2    O   84
    -0.04416500    -1.02090800     5.05356800    2    O   85
     1.70190100     3.68232600     6.49339400    2    O   86
     0.70064800     8.48037200     4.72577700    2    O   87
    -1.62531900     0.67976300     3.96969100    2    O   88
    10.44424400     8.57190300     4.71976800    2    O   89
     5.80869400     6.61399000     5.19022500    1    H   90
     6.30884900     8.10135500     4.86177900    1    H   91
     7.38143100     4.53999400     5.54114300    1    H   92
     6.28629600     3.94427900     4.61934900    1    H   93
    -1.01790900     4.27263000     4.50017200    1    H   94
    -1.09560100     5.87308400     4.15331000    1    H   95
     2.54322200     6.04390600     4.40043000    1    H   96
     1.02316000     5.54180700     4.52857800    1    H   97
     8.45366500     9.05068400     5.02501000    1    H   98
     7.33029300    10.01636900     4.42597500    1    H   99
     4.52970400     7.07807000     3.73215400    1    H  100
     4.13703400     5.92974000     2.63551500    1    H  101
    -0.91854200     7.97885200     4.44635500    1    H  102
    -2.54792500     7.61175800     4.59218700    1    H  103
     3.31102000    -0.82749200     4.21770400    1    H  104
     2.84557700    -2.37726500     4.44422600    1    H  105
     1.44005500     2.29327900     3.79588400    1    H  106
     1.61237400     2.45394400     5.35966200    1    H  107
     7.52886500     5.66217200     3.68286500    1    H  108
     9.01119100     6.17666400     3.65879700    1    H  109
     0.60193700    11.01933200     3.30489900    1    H  110
     0.75953800    10.31730800     4.67762800    1    H  111
     7.61074400     1.60362700     4.75541600    1    H  112
     8.25035400     0.76228800     5.94341600    1    H  113
     6.40787600     2.34874500     3.10054800    1    H  114
     5.40269900     1.59160700     4.08512100    1    H  115
    12.89274600     3.21864900     4.53102900    1    H  116
    12.86148200     3.93048000     5.94875300    1    H  117
     9.92725900     5.13629200     5.40996200    1    H  118
    11.19185600     5.23268900     4.53833200    1    H  119
     8.85506200     2.93078500     5.96286200    1    H  120
     8.97579500     3.85073900     7.25278400    1    H  121
     3.12305800     1.28642300     4.24333000    1    H  122
     3.83418900     0.64870700     2.95503000    1    H  123
     4.01473700     9.99553500     4.84578000    1    H  124
     2.85136700    10.74649600     4.10162700    1    H  125
    11.59172700     0.91693000     4.09190000    1    H  126
    10.02029000     0.75735900     4.38507200    1    H  127
     5.68494500    11.03945400     3.25976700    1    H  128
     6.87082100    12.05379700     3.02854700    1    H  129
    -0.19545100    -1.96674600     4.81956800    1    H  130
     0.92099100    -0.88921200     4.91153600    1    H  131
     1.83929000     4.59202300     6.10131100    1    H  132
     1.29395900     3.78580300     7.36206200    1    H  133
     1.11975400     7.72634000     5.21109200    1    H  134
     1.14081500     8.42882300     3.83172500    1    H  135
    -0.95053900     0.03800100     4.41866400    1    H  136
    -1.49971100     0.53124400     3.00595100    1    H  137
    10.30994500     8.80198800     3.76012500    1    H  138
    10.41265000     7.58442300     4.78321000    1    H  139
%endblock AtomicCoordinatesAndAtomicSpecies
