# Label
SystemLabel wat5sio2-a

# Optimisation
MD.TypeOfRun CG
MD.NumCGSteps 9000
MD.VariableCell .true. 
MD.UseSaveXV .true.
MD.UseSaveCG .true.
MD.UseSaveDM .true.

# SCF
SolutionMethod diagon
MaxSCFIterations 500
DM.MixingWeight 0.05
DM.NumberPulay 30 
SpinPolarized F

# Basis set
MeshCutoff 200 Ry

# Functional
XC.Functional GGA
XC.Authors RPBE

# I/O
LongOutput true
WriteMDhistory true
WriteMDXmol true
WriteCoorXmol true
WriteCoorCerius true
WriteDM true

############################################################################################
NumberOfSpecies    3
NumberOfAtoms      213

%block ChemicalSpeciesLabel
    1   1   H
    2   8   O
    3  14   Si 
%endblock ChemicalSpeciesLabel

%block PAO.BasisSizes
 H  DZP
 O  DZP
 Si DZP
%endblock PAO.BasisSizes

LatticeConstant    1.00000 Ang
%block LatticeVectors
   14.676672   -0.035579    0.000000
   -0.046750   14.798342    0.000000
    0.000000    0.000000   40.000000
%endblock LatticeVectors

%block GeometryConstraints
  position from  1  to 1
  position from  21 to 7
  position from  27 to 13 
  position from  33 to 19 
  position from  39 to 25 
  position from  45 to 31 
  position from  51 to 37 
  position from  57 to 43 
  position from  63 to 49 
  stress 3 4 5
%endblock GeometryConstraints

AtomicCoordinatesFormat Ang
%block AtomicCoordinatesAndAtomicSpecies
    2.97003781    3.37939138    2.43762000   3  Si         1
    3.25019165    0.97142009    4.29583805   3  Si         2
    0.82881234    0.88101269    6.16682632   3  Si         3
    0.82992151    3.28510033    8.04223961   3  Si         4
    3.23763359    3.27899297    9.94374657   3  Si         5
    2.78651946    0.87228475   11.82432401   3  Si         6
    2.96040139    8.27860300    2.43762000   3  Si         7
    3.31133415    5.86878952    4.28450800   3  Si         8
    0.89648741    5.77731209    6.15605600   3  Si         9
    0.82035735    8.16954963    7.99228500   3  Si        10
    3.22228921    8.17041787    9.84869400   3  Si        11
    2.79558047    5.81133779   11.79182200   3  Si        12
    2.95076596   13.17781362    2.43762000   3  Si        13
    3.29809724   10.77276061    4.28692500   3  Si        14
    0.88304426   10.68723764    6.16320700   3  Si        15
    0.84978668   13.09686199    8.01428700   3  Si        16
    3.23950378   13.07465635    9.94148700   3  Si        17
    2.77887969   10.64761507   11.76632500   3  Si        18
    7.84142509    3.37334709    2.43762000   3  Si        19
    8.08816546    0.94511151    4.31697200   3  Si        20
    5.67599263    0.87119505    6.18665000   3  Si        21
    5.66460663    3.27094382    8.03512300   3  Si        22
    8.12119282    3.32763586    9.86023600   3  Si        23
    7.69941409    0.92874069   11.71587700   3  Si        24
    7.83178867    8.27255870    2.43762000   3  Si        25
    8.21033658    5.86246773    4.29183700   3  Si        26
    5.75754860    5.75566741    6.13173300   3  Si        27
    5.70467130    8.17156702    7.96491400   3  Si        28
    8.15664223    8.32066091    9.76076200   3  Si        29
    7.68240443    5.99885193   11.50998800   3  Si        30
    7.82215224   13.17177032    2.43762000   3  Si        31
    8.17864335   10.76908982    4.28078100   3  Si        32
    5.74467599   10.69618950    6.13638000   3  Si        33
    5.69883580   13.06174802    8.02913700   3  Si        34
    8.15273635   13.12583923    9.83587100   3  Si        35
    7.71895771   10.79022077   11.69678500   3  Si        36
   12.71281137    3.36730379    2.43762000   3  Si        37
   12.99899953    0.96501948    4.28999500   3  Si        38
   10.58247633    0.89234214    6.13931700   3  Si        39
   10.59863302    3.29412375    8.00719800   3  Si        40
   12.99017619    3.33713513    9.91224400   3  Si        41
   12.54704232    0.91569439   11.73093300   3  Si        42
   12.70317595    8.26651441    2.43762000   3  Si        43
   13.09262719    5.87234446    4.27933100   3  Si        44
   10.66354145    5.79001935    6.13512600   3  Si        45
   10.60599998    8.23911275    7.91798600   3  Si        46
   12.95990169    8.26335751    9.86855800   3  Si        47
   12.51004264    5.87464378   11.75819500   3  Si        48
   12.69353952   13.16572602    2.43762000   3  Si        49
   13.07679238   10.79161785    4.26006200   3  Si        50
   10.65437134   10.70953823    6.08930600   3  Si        51
   10.60161695   13.09277206    7.95809700   3  Si        52
   12.98618541   13.14729972    9.84911900   3  Si        53
   12.56546171   10.77934245   11.72313600   3  Si        54
    2.56649768    4.68775877    3.39377800   2  O         55
    3.79518643    2.22050588    3.34238600   2  O         56
    4.51076684    0.31506993    5.14759300   2  O         57
    2.08806595    1.57317253    5.32487100   2  O         58
    0.16913324    2.05525943    7.14285800   2  O         59
    2.09132961    2.64690267    8.90825500   2  O         60
    2.53138452    4.53752950   10.74759800   2  O         61
    1.41332105    4.50779685    7.07874900   2  O         62
    4.52573283    3.87309094    9.07349900   2  O         63
    3.71556906    2.03466731   10.95245382   2  O         64
    3.49330579    0.52857118   13.22122843   2  O         65
    1.26727675    1.44402398   12.19664262   2  O         66
    2.55601715    9.58746214    3.40067314   2  O         67
    3.81688468    7.11178437    3.30465781   2  O         68
    4.63361227    5.21378238    5.04007470   2  O         69
    2.20933343    6.44865288    5.39025743   2  O         70
    0.16099358    6.96129745    7.06669818   2  O         71
    2.07825570    7.50684815    8.84533876   2  O         72
    2.50545829    9.40171874   10.69628524   2  O         73
    1.41726933    9.40116564    7.06016251   2  O         74
    4.51998168    8.73883028    8.99123031   2  O         75
    3.70882550    6.96322090   10.89865787   2  O         76
    3.67279686    5.36546150   13.08828228   2  O         77
    1.29552567    6.39660192   12.23447211   2  O         78
    2.54613090   14.49963229    3.38490583   2  O         79
    3.80829304   12.01992441    3.31476180   2  O         80
    4.61531935   10.13055597    5.06128092   2  O         81
    2.18545819   11.35373681    5.37942380   2  O         82
    0.19829486   11.86199213    7.11549746   2  O         83
    2.10818819   12.45592282    8.88681274   2  O         84
    2.56128577   14.32470271   10.75217614   2  O         85
    1.40305251   14.33015184    7.04615121   2  O         86
    4.57694430   13.60711738    9.12044658   2  O         87
    3.70097150   11.82283006   10.95658426   2  O         88
    3.70777058   10.16598172   13.06473724   2  O         89
    1.31305983   11.18659066   12.32300178   2  O         90
    7.46573814    4.67702533    3.40886528   2  O         91
    8.61832017    2.15986196    3.31570292   2  O         92
    9.38591220    0.31929136    5.14414464   2  O         93
    6.94576667    1.55375870    5.36335066   2  O         94
    4.98714927    2.03972211    7.14927207   2  O         95
    6.96003224    2.64056395    8.87524178   2  O         96
    7.41973697    4.65231344   10.56467811   2  O         97
    6.24270160    4.48301905    7.06578734   2  O         98
    9.42576587    3.89440318    9.00839859   2  O         99
    8.64336919    2.13166207   10.91509755   2  O        100
    8.51226883    0.51929303   13.10114186   2  O        101
    6.26310815    1.53503910   12.20557804   2  O        102
    7.43646889    9.58091685    3.40020512   2  O        103
    8.69351340    7.10870734    3.30631750   2  O        104
    9.53587730    5.22246432    5.05618647   2  O        105
    7.08696526    6.41656725    5.38916369   2  O        106
    5.05648459    6.95254363    7.05101197   2  O        107
    6.99164008    7.57304746    8.82898767   2  O        108
    7.46519338    9.58051000   10.56383800   2  O        109
    6.27659560    9.42228176    7.04778489   2  O        110
    9.40683549    8.91678696    8.84440555   2  O        111
    8.76070727    7.08231614   10.73185566   2  O        112
    8.42988327    5.54291917   12.93170812   2  O        113
    6.30487568    6.75781222   11.93460167   2  O        114
    7.37666337   14.44896985    3.43554180   2  O        115
    8.68905558   12.00546967    3.29390754   2  O        116
    9.49570820   10.12574464    5.05467991   2  O        117
    7.05341855   11.35944558    5.36050430   2  O        118
    5.04326489   11.86627410    7.08579463   2  O        119
    7.00229918   12.43344650    8.85026222   2  O        120
    7.47491785   14.40415576   10.63531575   2  O        121
    6.21825940   14.32829593    7.08997419   2  O        122
    9.42761691   13.70220195    8.95532279   2  O        123
    8.68244731   11.95337571   10.90373793   2  O        124
    8.38851054   10.31630483   13.08535398   2  O        125
    6.23763471   11.43685813   12.16214281   2  O        126
   12.34690695    4.67567065    3.41005181   2  O        127
   13.54843946    2.17497056    3.29259231   2  O        128
   14.27083263    0.33379580    5.15385109   2  O        129
   11.82808225    1.58902957    5.29174495   2  O        130
    9.93186162    2.06987735    7.11134318   2  O        131
   11.85185385    2.67105136    8.89823923   2  O        132
   12.28099714    4.60181355   10.71188905   2  O        133
   11.18846588    4.52479500    7.06549261   2  O        134
   14.30542420    3.88493444    9.06270714   2  O        135
   13.46200739    2.12790614   10.95611613   2  O        136
   13.36733247    0.41629784   13.05779592   2  O        137
   11.05177914    1.42657409   12.24127630   2  O        138
   12.34428849    9.58783696    3.39543164   2  O        139
   13.58622459    7.10507460    3.28455727   2  O        140
   14.41094219    5.22791557    5.05787623   2  O        141
   11.97005099    6.46523503    5.36218731   2  O        142
    9.95556718    6.98591870    7.04645678   2  O        143
   11.81906563    7.59868174    8.85685845   2  O        144
   12.27942860    9.55001351   10.63021474   2  O        145
   11.25456340    9.42797710    6.95881987   2  O        146
   14.30380474    8.75948132    9.02583702   2  O        147
   13.42427552    7.05691603   10.93847271   2  O        148
   13.26821647    5.48403828   13.15761262   2  O        149
   11.00172388    6.47454579   12.18386439   2  O        150
   12.29074093   14.46690092    3.41366031   2  O        151
   13.61106014   12.01504255    3.26928448   2  O        152
   14.36430826   10.15558677    5.09316734   2  O        153
   11.92172458   11.42381693    5.28510510   2  O        154
    9.95120498   11.86665744    7.05099156   2  O        155
   11.86299661   12.45917246    8.83149410   2  O        156
   12.27682845   14.42567478   10.61047448   2  O        157
   11.15981977   14.34314132    7.01654130   2  O        158
   14.31203800   13.69763375    9.01220256   2  O        159
   13.53191048   11.93367638   10.89694051   2  O        160
   13.30942991   10.26033815   13.10166309   2  O        161
   11.16221779   11.45023763   12.23758669   2  O        162
    1.66714248    2.84245080    1.91808218   1  H        163
    3.91620584    3.78954454    1.34549346   1  H        164
    0.70012851    1.85201163   11.51175946   1  H        165
    4.25381239   -0.12771344   13.52448874   1  H        166
    1.65173773    7.73314429    1.94247097   1  H        167
    3.88329257    8.70546698    1.33224986   1  H        168
    0.71088549    6.80270349   11.56186375   1  H        169
    3.87960119    6.12871121   13.70398517   1  H        170
    1.64317668   12.62421941    1.94888304   1  H        171
    3.87460523   13.59260931    1.32884521   1  H        172
    0.69399906   11.61715862   11.68904774   1  H        173
    4.62156519   10.53675654   13.04040534   1  H        174
    6.52902096    2.89062828    1.89076653   1  H        175
    8.81644735    3.76838296    1.36574952   1  H        176
    5.50599263    1.73071372   11.61665437   1  H        177
    9.48668746    0.43996271   13.01877857   1  H        178
    6.52218145    7.72242493    1.95065664   1  H        179
    8.74862412    8.69425767    1.32521202   1  H        180
    5.46797461    6.78055520   11.42501339   1  H        181
    9.39592463    5.70376911   12.97178139   1  H        182
    6.53226151   12.61096921    1.91128582   1  H        183
    8.75250129   13.64104046    1.35629878   1  H        184
    5.60318712   11.70521750   11.46244868   1  H        185
    9.24030568    9.81573400   13.26084795   1  H        186
   11.39076746    2.85260241    1.94632410   1  H        187
   13.63728711    3.77708841    1.32703579   1  H        188
   10.42460016    1.83173809   11.60055855   1  H        189
   14.33165558    0.60154248   13.05329351   1  H        190
   11.37610378    7.72053312    1.99587490   1  H        191
   13.58722834    8.67605055    1.29436848   1  H        192
   10.39327089    6.73770867   11.44250704   1  H        193
   14.24217053    5.59093680   13.16348458   1  H        194
   11.38363402   12.58517334    1.98741899   1  H        195
   13.56616395   13.61542285    1.30062638   1  H        196
   10.41790506   11.68667820   11.64790295   1  H        197
   14.28297606   10.31712833   13.16010827   1  H        198
    5.71849176    1.63795987   15.19633115   2  O        199
    6.48125741    2.24865393   15.00779819   1  H        200
    4.96715613    2.00254271   14.69655252   1  H        201
   10.54267076    8.92614480   13.73288777   2  O        202
   10.74231952    8.04967415   13.34890579   1  H        203
   11.40347308    9.33563657   13.93206404   1  H        204
    7.93000731    3.10146948   14.63631450   2  O        205
    8.00802870    3.91625389   14.10210616   1  H        206
    8.44736030    2.41797571   14.17350654   1  H        207
    3.94204077    7.61633802   14.48155722   2  O        208
    3.86740258    8.48685372   14.03835871   1  H        209
    3.84923163    7.77413877   15.42983602   1  H        210
    5.29161095   13.96338372   14.27381352   2  O        211
    5.97140187   13.42261723   13.84100797   1  H        212
    5.70056710   14.80067151   14.67836580   1  H        213
%endblock AtomicCoordinatesAndAtomicSpecies
