# Label
SystemLabel cat

# SCF
SolutionMethod diagon
MaxSCFIterations 500
DM.MixingWeight 0.05
DM.NumberPulay 30
SpinPolarized F

# Basis set
MeshCutoff 400 Ry

# Functional
XC.Functional GGA
XC.Authors RPBE

# I/O
LongOutput true
WriteMDhistory true
WriteMDXmol true
WriteCoorXmol true
WriteCoorCerius true
WriteDM true

%block kgrid_MonkhorstPack
6 0 0 0.0
0 6 0 0.0
0 0 1 0.0
%endblock kgrid_MonkhorstPack

############################################################################################
NumberOfSpecies    3 
NumberOfAtoms      14 

%block ChemicalSpeciesLabel
    1  1   H
    2  6   C
    3  8   O 
%endblock ChemicalSpeciesLabel

%block PAO.BasisSizes
 H DZP
 C DZP
 O DZP
%endblock PAO.BasisSizes

%block GeometryConstraints
  stress 3 4 5
%endblock GeometryConstraints

LatticeConstant    1.00000 Ang
%block LatticeVectors
 14.829829    0.954961    0.000000
  0.950355   15.916955    0.000000
  0.000000    0.000000   40.000000
%endblock LatticeVectors

AtomicCoordinatesFormat Ang
%block AtomicCoordinatesAndAtomicSpecies
    8.51547752   10.04810042   20.89592098   2  C          1
    9.92677945   10.06218112   20.98326953   2  C          2
   10.62490985    8.84974270   21.03874846   2  C          3
    9.92198129    7.63485580   20.99441576   2  C          4
    8.52471794    7.62501609   20.89477777   2  C          5
    7.81570689    8.83894883   20.84822297   2  C          6
   10.59411318   11.25191732   21.00892142   3  O          7
    7.95229759   11.30439961   20.86725629   3  O          8
    9.91843532   11.95725558   20.99030845   1  H          9
   11.71863395    8.88133930   21.11917604   1  H         10
   10.47806118    6.69005059   21.03551021   1  H         11
    7.97825063    6.67385036   20.85595273   1  H         12
    6.71907836    8.84670824   20.76993951   1  H         13
    6.98867372   11.25612657   20.78809981   1  H         14
%endblock AtomicCoordinatesAndAtomicSpecies
