   MOF_74_Cu +CH4                       
   1.00000000000000     
    13.4688326065640087   -0.1803804692836204   -7.1923747671764913
   -11.9540918296940326    6.2081953542774668   -7.1923749144106424
    -0.0453282000557328   -0.1803804210598479   15.2688457431623483
   H    C    O    Cu   C    H 
     6    24    18     6     6    24
Direct
  0.1198289216314308  0.6735128949461924  0.0953211760125328
  0.0953211711454927  0.1198289137118422  0.6735128811278557
  0.6735128802925061  0.0953211656389641  0.1198289154000136
  0.8801710783685692  0.3264871050538076  0.9046788239874672
  0.9046788288545073  0.8801710862881578  0.3264871188721443
  0.3264871197074939  0.9046788343610359  0.8801710845999935
  0.7287427197907164  0.8969896220378217  0.2957095031233195
  0.2957095068517077  0.7287427330786329  0.8969896213328354
  0.8969896154792707  0.2957094966448608  0.7287427172200580
  0.2712572802092836  0.1030103779621783  0.7042904968766805
  0.7042904931482923  0.2712572669213671  0.1030103786671646
  0.1030103845207293  0.7042905033551392  0.2712572827799420
  0.3116506262714083  0.8667192747479788  0.3959241456657949
  0.3959241404197229  0.3116506105234365  0.8667192724145920
  0.8667192688746255  0.3959241220120191  0.3116506201406537
  0.6883493737285917  0.1332807252520212  0.6040758543342051
  0.6040758595802700  0.6883493894765635  0.1332807275854080
  0.1332807311253745  0.6040758779879809  0.6883493798593463
  0.2854703871286404  0.8169244548233223  0.2726224086606237
  0.2726224034604456  0.2854703733153627  0.8169244484748219
  0.8169244462487271  0.2726223909367462  0.2854703816499793
  0.7145296128713596  0.1830755451766777  0.7273775913393905
  0.7273775965395544  0.7145296266846373  0.1830755515251781
  0.1830755537512729  0.7273776090632538  0.7145296183500207
  0.4684453964401953  0.9418523775774545  0.3698051330809733
  0.3698051259859199  0.4684453746622097  0.9418523751611900
  0.9418523735438313  0.3698051106502547  0.4684453904670107
  0.5315546035598047  0.0581476224225455  0.6301948669190267
  0.6301948740140801  0.5315546253377903  0.0581476248388100
  0.0581476264561687  0.6301948893497453  0.5315546095329893
  0.0680739493795599  0.4176310691469070  0.9108219967236693
  0.9108219986996886  0.0680739481695696  0.4176310837757313
  0.4176310869605473  0.9108220044521289  0.0680739556252590
  0.9319260506204472  0.5823689308530859  0.0891780032763307
  0.0891780013003114  0.9319260518304304  0.5823689162242687
  0.5823689130394527  0.0891779955478711  0.9319260443747410
  0.6640845372055253  0.9081496936572364  0.3225284753742201
  0.3225284815593383  0.6640845569402316  0.9081496933736588
  0.9081496871239381  0.3225284727970035  0.6640845358658396
  0.3359154627944676  0.0918503063427636  0.6774715246257799
  0.6774715184406617  0.3359154430597684  0.0918503066263412
  0.0918503128760619  0.6774715272029965  0.3359154641341604
  0.4263548395321806  0.8682801334716785  0.2351790243075840
  0.2351790174601120  0.4263548203632510  0.8682801271757938
  0.8682801268944047  0.2351790083806478  0.4263548346048154
  0.5736451604678194  0.1317198665283357  0.7648209756924160
  0.7648209825398880  0.5736451796367490  0.1317198728242062
  0.1317198731055953  0.7648209916193522  0.5736451653951846
  0.3463800845023641  0.6494375086962094  0.0833596896951931
  0.0833596820204505  0.3463800700429331  0.6494374904982365
  0.6494374907554388  0.0833596802062502  0.3463800773482149
  0.6536199154976430  0.3505624913037906  0.9166403103048140
  0.9166403179795495  0.6536199299570669  0.3505625095017564
  0.3505625092445541  0.9166403197937569  0.6536199226517851
  0.7772897850620097  0.4503129017151650  0.5690346405337223
  0.5690346404750173  0.7772897850036600  0.4503129016553018
  0.4503129016853720  0.5690346405050661  0.7772897850332612
  0.2227102149377416  0.5496870982849629  0.4309653594658727
  0.4309653595245848  0.2227102149960913  0.5496870983448332
  0.5496870983147630  0.4309653594945360  0.2227102149665328
  0.8736141440834331  0.5906887752329055  0.6420284842997930
  0.6420284842305364  0.8736141440155691  0.5906887751604444
  0.5906887751989913  0.6420284842709236  0.8736141440522687
  0.1263858559163040  0.4093112247672224  0.3579715157000649
  0.3579715157693215  0.1263858559841680  0.4093112248396835
  0.4093112248011366  0.3579715157289343  0.1263858559474684
  0.6705290970142528  0.3937960248533372  0.5391246755469865
  0.5391246754921113  0.6705290969585604  0.3937960247981636
  0.3937960248315022  0.5391246755254571  0.6705290969929010
  0.3294709029856193  0.6062039751464781  0.4608753244528856
  0.4608753245077608  0.3294709030414680  0.6062039752016517
  0.6062039751683201  0.4608753244744221  0.3294709030071132
  0.6686367092716097  0.3083497867948637  0.4070368605725605
  0.4070368605190922  0.6686367092174805  0.3083497867414167
  0.3083497867644809  0.4070368605416732  0.6686367092413050
  0.3313632907284969  0.6916502132051434  0.5929631394274324
  0.5929631394809007  0.3313632907826261  0.6916502132585904
  0.6916502132355262  0.5929631394583126  0.3313632907588087
  0.8967099171011910  0.5093494670483665  0.6884355269911708
  0.6884355269346543  0.8967099170461807  0.5093494669891498
  0.5093494670162784  0.6884355269637581  0.8967099170713340
  0.1032900828986101  0.4906505329514985  0.3115644730086373
  0.3115644730651539  0.1032900829536132  0.4906505330106796
  0.4906505329835582  0.3115644730360501  0.1032900829284600
 
  0.00000000E+00  0.00000000E+00  0.00000000E+00
  0.00000000E+00  0.00000000E+00  0.00000000E+00
  0.00000000E+00  0.00000000E+00  0.00000000E+00
  0.00000000E+00  0.00000000E+00  0.00000000E+00
  0.00000000E+00  0.00000000E+00  0.00000000E+00
  0.00000000E+00  0.00000000E+00  0.00000000E+00
  0.00000000E+00  0.00000000E+00  0.00000000E+00
  0.00000000E+00  0.00000000E+00  0.00000000E+00
  0.00000000E+00  0.00000000E+00  0.00000000E+00
  0.00000000E+00  0.00000000E+00  0.00000000E+00
  0.00000000E+00  0.00000000E+00  0.00000000E+00
  0.00000000E+00  0.00000000E+00  0.00000000E+00
  0.00000000E+00  0.00000000E+00  0.00000000E+00
  0.00000000E+00  0.00000000E+00  0.00000000E+00
  0.00000000E+00  0.00000000E+00  0.00000000E+00
  0.00000000E+00  0.00000000E+00  0.00000000E+00
  0.00000000E+00  0.00000000E+00  0.00000000E+00
  0.00000000E+00  0.00000000E+00  0.00000000E+00
  0.00000000E+00  0.00000000E+00  0.00000000E+00
  0.00000000E+00  0.00000000E+00  0.00000000E+00
  0.00000000E+00  0.00000000E+00  0.00000000E+00
  0.00000000E+00  0.00000000E+00  0.00000000E+00
  0.00000000E+00  0.00000000E+00  0.00000000E+00
  0.00000000E+00  0.00000000E+00  0.00000000E+00
  0.00000000E+00  0.00000000E+00  0.00000000E+00
  0.00000000E+00  0.00000000E+00  0.00000000E+00
  0.00000000E+00  0.00000000E+00  0.00000000E+00
  0.00000000E+00  0.00000000E+00  0.00000000E+00
  0.00000000E+00  0.00000000E+00  0.00000000E+00
  0.00000000E+00  0.00000000E+00  0.00000000E+00
  0.00000000E+00  0.00000000E+00  0.00000000E+00
  0.00000000E+00  0.00000000E+00  0.00000000E+00
  0.00000000E+00  0.00000000E+00  0.00000000E+00
  0.00000000E+00  0.00000000E+00  0.00000000E+00
  0.00000000E+00  0.00000000E+00  0.00000000E+00
  0.00000000E+00  0.00000000E+00  0.00000000E+00
  0.00000000E+00  0.00000000E+00  0.00000000E+00
  0.00000000E+00  0.00000000E+00  0.00000000E+00
  0.00000000E+00  0.00000000E+00  0.00000000E+00
  0.00000000E+00  0.00000000E+00  0.00000000E+00
  0.00000000E+00  0.00000000E+00  0.00000000E+00
  0.00000000E+00  0.00000000E+00  0.00000000E+00
  0.00000000E+00  0.00000000E+00  0.00000000E+00
  0.00000000E+00  0.00000000E+00  0.00000000E+00
  0.00000000E+00  0.00000000E+00  0.00000000E+00
  0.00000000E+00  0.00000000E+00  0.00000000E+00
  0.00000000E+00  0.00000000E+00  0.00000000E+00
  0.00000000E+00  0.00000000E+00  0.00000000E+00
  0.00000000E+00  0.00000000E+00  0.00000000E+00
  0.00000000E+00  0.00000000E+00  0.00000000E+00
  0.00000000E+00  0.00000000E+00  0.00000000E+00
  0.00000000E+00  0.00000000E+00  0.00000000E+00
  0.00000000E+00  0.00000000E+00  0.00000000E+00
  0.00000000E+00  0.00000000E+00  0.00000000E+00
  0.00000000E+00  0.00000000E+00  0.00000000E+00
  0.00000000E+00  0.00000000E+00  0.00000000E+00
  0.00000000E+00  0.00000000E+00  0.00000000E+00
  0.00000000E+00  0.00000000E+00  0.00000000E+00
  0.00000000E+00  0.00000000E+00  0.00000000E+00
  0.00000000E+00  0.00000000E+00  0.00000000E+00
  0.00000000E+00  0.00000000E+00  0.00000000E+00
  0.00000000E+00  0.00000000E+00  0.00000000E+00
  0.00000000E+00  0.00000000E+00  0.00000000E+00
  0.00000000E+00  0.00000000E+00  0.00000000E+00
  0.00000000E+00  0.00000000E+00  0.00000000E+00
  0.00000000E+00  0.00000000E+00  0.00000000E+00
  0.00000000E+00  0.00000000E+00  0.00000000E+00
  0.00000000E+00  0.00000000E+00  0.00000000E+00
  0.00000000E+00  0.00000000E+00  0.00000000E+00
  0.00000000E+00  0.00000000E+00  0.00000000E+00
  0.00000000E+00  0.00000000E+00  0.00000000E+00
  0.00000000E+00  0.00000000E+00  0.00000000E+00
  0.00000000E+00  0.00000000E+00  0.00000000E+00
  0.00000000E+00  0.00000000E+00  0.00000000E+00
  0.00000000E+00  0.00000000E+00  0.00000000E+00
  0.00000000E+00  0.00000000E+00  0.00000000E+00
  0.00000000E+00  0.00000000E+00  0.00000000E+00
  0.00000000E+00  0.00000000E+00  0.00000000E+00
  0.00000000E+00  0.00000000E+00  0.00000000E+00
  0.00000000E+00  0.00000000E+00  0.00000000E+00
  0.00000000E+00  0.00000000E+00  0.00000000E+00
  0.00000000E+00  0.00000000E+00  0.00000000E+00
  0.00000000E+00  0.00000000E+00  0.00000000E+00
  0.00000000E+00  0.00000000E+00  0.00000000E+00
