H 6   C 24   O 18   Cu 6                
   1.00000000000000     
    13.4645422725358177    0.0794098370301638   -7.1162087961869886
   -11.8275000041181517    6.4350962982108122   -7.1162088156583492
     0.0199550256598376    0.0794098411832640   15.2293770806975086
   H    C    O    Co
     6    24    18     6
Direct
  0.1533269375411237  0.6808003226304606  0.1278104232935178
  0.1278104187311513  0.1533269299166520  0.6808003091237325
  0.6808003082163125  0.1278104131440685  0.1533269315441359
  0.8466730624588621  0.3191996773695394  0.8721895767064680
  0.8721895812688416  0.8466730700833338  0.3191996908762675
  0.3191996917837017  0.8721895868559173  0.8466730684558570
  0.6867623615650373  0.8575714398295489  0.2559066517657413
  0.2559066554807856  0.6867623748439087  0.8575714391043192
  0.8575714332313922  0.2559066452614687  0.6867623589603085
  0.3132376384349840  0.1424285601704369  0.7440933482342373
  0.7440933445192002  0.3132376251560984  0.1424285608956666
  0.1424285667685936  0.7440933547385171  0.3132376410396986
  0.3287725085343354  0.8774706280676980  0.4137994065282768
  0.4137994013257682  0.3287724928279516  0.8774706257827205
  0.8774706222282802  0.4137993829006916  0.3287725024333739
  0.6712274914656575  0.1225293719322877  0.5862005934717089
  0.5862005986742176  0.6712275071720413  0.1225293742172582
  0.1225293777716985  0.5862006170992942  0.6712274975666119
  0.3052196549116886  0.8205126592794088  0.2908620549877767
  0.2908620499783865  0.3052196412831876  0.8205126531259381
  0.8205126508405201  0.2908620373920385  0.3052196495654655
  0.6947803450883185  0.1794873407206055  0.7091379450122020
  0.7091379500215993  0.6947803587168266  0.1794873468740761
  0.1794873491594942  0.7091379626079473  0.6947803504345416
  0.4713129711193034  0.9377927345122430  0.3708335179416409
  0.3708335109843830  0.4713129494765340  0.9377927322331203
  0.9377927305248548  0.3708334955573704  0.4713129651931922
  0.5286870288807108  0.0622072654877712  0.6291664820583591
  0.6291664890156241  0.5286870505234944  0.0622072677668939
  0.0622072694751594  0.6291665044426367  0.5286870348068362
  0.0320443968468496  0.4142241356053162  0.8783160515006188
  0.8783160531103036  0.0320443952725569  0.4142241498695753
  0.4142241531081865  0.8783160589169157  0.0320444027799809
  0.9679556031531149  0.5857758643947122  0.1216839484993812
  0.1216839468896964  0.9679556047274147  0.5857758501304531
  0.5857758468918419  0.1216839410830843  0.9679555972199836
  0.5758195616188573  0.8384228767534481  0.2076445134270699
  0.2076445194528134  0.5758195812166420  0.8384228762839214
  0.8384228696462017  0.2076445103334521  0.5758195597259501
  0.4241804383811427  0.1615771232465661  0.7923554865729159
  0.7923554805471724  0.4241804187833651  0.1615771237160999
  0.1615771303538125  0.7923554896665337  0.4241804402740428
  0.4332656681042479  0.8693130012111325  0.2394665243321938
  0.2394665176029704  0.4332656490491544  0.8693129950339937
  0.8693129946551608  0.2394665084263963  0.4332656631980214
  0.5667343318957663  0.1306869987888248  0.7605334756677919
  0.7605334823970153  0.5667343509508527  0.1306870049659636
  0.1306870053447895  0.7605334915735895  0.5667343368019857
  0.2887551094085765  0.6183083472445148  0.0225299359499687
  0.0225299280214983  0.2887550946969952  0.6183083287946260
  0.6183083290699614  0.0225299262275982  0.2887551020187118
  0.7112448905914448  0.3816916527554923  0.9774700640500456
  0.9774700719785088  0.7112449053030332  0.3816916712053811
  0.3816916709300457  0.9774700737724160  0.7112448979813095
                       
